100
125
87
87
87
87
87
84
83
83
83
83
83
83
82
80
80
80
79
79
79
79
78
77
77
77
77
76
76
76
75
74
72
71
71
70
70
69
68
67
67
66
66
66
66
65
64
63
62
60
59
59
59
59
58
57
57
56
56
56
56
55
55
54
51
51
50
50
50
50
49
48
48
47
46
45
45
45
44
43
42
41
40
39
36
34
34
33
33
33
32
31
30
30
29
28
27
27
25
25
25
25
